p cnf 150 60
x 2 5 -6 -7 9 12 -20 -23 25 -26 -27 29 30 31 -32 38 -39 -42 44 45 -47 -50 52 -53 54 -56 -58 -59 -61 62 -64 67 74 75 -76 78 -80 81 83 86 87 88 89 90 -91 95 98 99 -101 -104 -106 107 -110 -111 -113 -115 -116 117 -119 120 121 126 127 130 -131 134 -137 -138 139 -140 -142 143 145 -148 0
x -4 6 7 8 -9 -10 -12 -13 15 16 17 -18 19 22 25 34 -35 36 -38 -39 47 -48 49 50 52 -55 59 61 62 63 -65 66 67 -69 -70 -71 72 -77 79 -82 -83 -85 87 -89 -93 -97 98 100 -101 -102 -103 -104 -105 109 -113 114 -115 -116 117 119 120 -122 123 125 -130 134 136 137 138 -139 -141 -143 144 145 -146 -147 148 0
x -1 -2 5 -7 -8 10 11 -13 14 16 -18 -19 27 -28 -29 -34 38 40 -43 -45 46 48 -52 53 -55 -57 59 -60 -66 69 -71 72 74 -76 77 -81 -82 -84 86 87 -88 -89 -91 -92 93 -96 98 -99 -100 -101 -102 103 -104 105 108 -111 -112 -113 114 116 -119 120 -122 124 125 128 -129 -130 132 -135 -137 -138 139 145 147 148 -149 150 0
x 1 2 5 -6 -8 9 -10 -12 13 17 18 -23 -25 -26 -27 28 -30 -31 33 -34 -35 -39 -43 46 -47 -49 50 52 -53 54 59 60 -61 62 64 -65 -66 67 69 72 -75 76 -79 -80 81 -84 -86 -88 89 -90 -91 92 94 -97 98 -100 -101 -106 -109 -112 -114 116 -119 120 -121 123 -124 125 126 127 128 -130 131 -134 -136 -138 139 141 -144 -145 -146 147 -148 150 0
x 5 6 8 -9 10 11 -12 14 15 20 23 -24 -25 -26 28 -29 -32 -34 -36 -37 -39 -40 41 -42 44 46 -47 49 50 51 53 54 -57 59 -60 -62 -67 -70 71 72 73 76 -78 81 83 -85 -87 -88 89 92 -93 95 -98 -99 -100 -102 -104 -105 -107 108 -109 110 118 -119 -120 -121 -122 125 128 -129 -130 132 134 -136 -137 -140 -142 -144 -145 148 150 0
x 2 4 -5 -7 -9 12 18 27 -28 30 -35 -37 39 -43 -46 -47 -48 -50 54 55 -56 -58 59 -60 -62 -63 64 66 67 -68 -69 73 -74 78 83 -87 88 -89 -94 -95 -97 98 -99 -104 -105 106 107 108 -109 -110 -115 -116 123 -124 126 -129 132 133 -134 -135 -138 -139 -140 -141 143 -145 147 148 0
x -1 -2 3 4 5 -6 7 -12 -13 14 -15 -16 18 -20 -21 23 -24 -26 -27 -29 30 -32 -34 35 -37 -38 -39 41 42 -44 47 48 -51 -52 -53 54 56 -57 62 -64 68 -69 70 -72 73 -75 76 -77 -79 82 83 86 87 88 -89 -90 -92 99 101 -102 103 -104 108 -109 111 113 114 -115 -116 -119 120 -121 123 125 -126 128 -132 -133 -134 -137 139 140 141 -142 143 144 146 0
x 1 -2 5 7 9 -13 -19 -21 -22 -23 -24 26 28 -29 30 31 -33 -34 -36 37 -38 -41 -45 51 -52 -54 56 -60 -62 -63 68 69 73 -74 76 78 -79 81 -82 -83 84 85 86 87 -89 -93 -95 -96 -99 101 102 103 107 110 -114 -116 -117 118 -120 -121 122 -123 126 -128 130 -131 132 137 139 142 143 -144 -150 0
x -2 -3 -4 -5 6 7 -9 11 14 16 18 19 20 21 22 24 -27 -30 -31 32 37 -40 41 -42 -43 -48 -52 53 -54 56 -57 59 60 63 -64 65 67 68 69 -70 72 74 77 78 -79 82 84 86 87 -88 -89 91 94 95 -100 101 102 -106 114 115 -119 -120 -124 129 130 -134 135 -137 -139 142 -143 148 0
x 2 -6 7 -8 9 -11 13 14 -16 -21 22 25 -26 -27 32 -35 -36 37 -39 -41 44 -47 48 49 -51 57 -59 60 -65 66 67 -68 -71 -72 -78 -79 80 83 84 -86 -97 100 -102 -110 112 -115 -116 -117 -119 -120 121 -122 -125 129 -132 -135 -136 -140 142 -144 145 -147 148 -149 0
x -5 -11 -13 15 -17 -20 21 22 23 26 27 -30 32 33 34 37 -39 40 43 -46 -47 48 49 -53 -56 -61 64 -65 71 -72 -74 77 -79 80 -83 85 86 -88 90 93 -94 -96 -100 -101 -102 106 -107 108 -109 -112 113 -114 -115 -116 118 -121 125 127 -129 131 -132 135 -137 140 -142 -143 -145 -146 148 149 0
x -1 -2 -3 5 7 -10 11 -13 -19 20 -21 -23 -27 28 29 33 34 -35 -41 42 45 46 47 48 50 52 55 57 60 61 63 -64 68 69 70 -71 -72 74 75 -77 78 81 -83 -86 -87 -89 91 -92 -99 -101 -102 -103 104 -107 109 -110 112 -114 117 -118 123 124 -127 -129 131 -135 138 140 -144 -147 149 0
x 2 -3 4 -5 6 -9 -10 -12 -13 14 -17 -18 -19 -20 22 24 -27 -28 -30 31 -32 33 34 36 37 40 -41 48 -49 50 -51 -52 -53 54 -57 59 60 61 62 63 -64 -65 -67 -69 70 71 -72 74 75 76 -79 -82 84 -85 86 87 89 -90 -91 -92 93 -94 -95 -96 -97 -98 -100 110 -111 -116 119 121 -122 125 -128 129 131 136 139 -142 -147 -148 149 -150 0
x 1 2 -3 7 -8 16 -17 -20 21 -23 -25 -26 30 32 -34 -36 37 42 43 -45 -46 47 -48 50 52 56 -58 61 -63 -64 -65 -70 71 -72 -73 74 76 -77 -78 79 82 84 86 88 89 90 91 93 96 98 99 102 105 107 108 110 111 -112 113 -114 116 118 122 123 124 -126 128 129 130 132 133 136 -137 -141 -142 143 145 147 -148 150 0
x 1 -2 3 -4 -6 -8 -10 11 16 -18 -20 -21 -23 -24 25 26 -27 -29 30 -31 -32 33 -34 -35 -38 40 41 -42 -43 44 45 -48 49 51 53 -54 55 -57 -60 61 62 63 70 -75 -77 -78 -83 84 86 89 91 -93 -96 -97 -98 -99 -104 105 106 -109 110 -111 112 -113 114 115 120 122 126 -127 -128 129 130 -131 133 -136 137 -144 -146 -147 149 -150 0
x 1 2 -4 -8 -11 -12 -16 18 20 22 23 24 26 -27 28 29 -32 34 35 36 -39 -46 -50 52 53 54 55 -57 61 -63 64 65 67 68 69 -71 75 -76 78 80 -81 -86 88 -89 -90 -91 94 95 -99 -100 -101 102 -104 105 -106 107 -109 -110 -111 112 116 121 124 -125 126 127 -129 135 -136 -138 141 -142 -144 145 -146 148 -149 0
x 3 4 8 -10 13 -15 16 20 -26 -27 30 -31 -33 34 -38 -41 -43 44 -46 47 -48 49 54 -56 -57 -59 67 68 69 -74 75 -77 79 80 -81 -85 86 90 91 92 -95 96 -97 -98 -99 101 -103 104 106 -112 113 -114 116 118 -120 -122 124 -125 -128 -129 131 132 133 136 -137 -138 -139 142 143 -145 146 149 -150 0
x 5 -7 -10 -11 -12 13 -14 -15 17 18 -20 21 22 23 -24 -27 -28 -37 -38 -40 -42 46 -47 49 -53 54 -55 57 58 -61 -62 -63 -65 66 67 68 70 -71 72 -76 -77 -79 80 83 84 85 93 -95 98 99 -101 102 103 105 106 110 111 -113 -117 118 -119 120 -121 -122 124 125 127 130 132 -133 -134 -135 136 -137 -140 -143 -144 -145 -146 -148 0
x -1 -2 3 -5 -6 8 -12 13 -14 17 18 -19 -20 -22 24 -25 28 -29 -30 33 -35 36 37 -40 43 44 -46 48 49 -50 52 -54 -55 56 -59 62 -63 64 66 67 -69 -70 72 -73 74 -75 77 -81 83 -84 85 -87 -88 -89 -90 -91 -93 96 98 -99 -100 -101 102 -105 -106 -107 108 119 -122 125 126 -127 128 129 131 -134 -136 140 142 -144 145 -146 -148 -149 0
x -3 -4 5 8 13 15 -16 21 -23 -25 27 29 -31 32 -33 -34 36 42 43 44 46 -47 54 -55 -56 57 60 62 -63 -66 -68 71 72 73 75 -78 -79 -80 84 85 -86 88 -90 -93 -97 98 -101 112 113 -116 118 119 121 122 -124 125 126 127 -132 137 -139 -140 -142 144 147 -148 149 0
x -1 -2 -3 4 -5 6 -8 -9 10 12 -14 -16 22 23 -24 -28 -30 32 38 43 44 -45 46 48 50 -51 -52 -54 55 57 -59 66 -71 73 -74 75 78 79 -83 86 -87 89 90 91 95 -96 97 -98 -99 -101 -103 -105 -108 -112 -116 118 -119 122 128 -129 130 131 132 -134 135 138 139 -140 -142 -144 -145 146 149 -150 0
x 2 -4 -6 -10 -12 -14 -16 17 -18 20 23 -24 25 -26 -27 -28 -31 -32 34 -35 -36 38 -40 -41 42 -43 46 47 -50 -51 -55 -56 -57 -58 -60 63 -66 69 -70 71 -72 -73 76 -77 78 -79 -82 83 84 85 86 88 -89 -90 -91 93 -95 -96 -98 -100 -101 -102 -103 -104 107 108 110 -111 -113 114 -115 -116 -119 -122 124 127 -128 -130 -131 133 138 140 -142 143 -145 149 0
x -7 -9 -11 -12 13 -17 18 20 -21 -25 28 -29 34 35 36 -38 -39 -40 -44 47 -48 49 -50 -53 -54 55 -56 58 60 61 63 65 -66 68 69 71 -72 73 74 79 81 -82 -83 87 -89 -91 -93 96 97 -99 -100 101 -103 104 -106 -108 -110 -111 112 -113 114 -116 -118 121 122 -123 128 129 132 133 -134 -136 -137 -143 146 -147 -148 0
x -2 -5 7 8 14 -15 -16 18 19 25 -32 34 -36 -37 -38 -41 -45 46 -47 48 50 -53 54 -55 56 -58 -61 62 63 64 -65 66 70 72 73 75 76 77 -78 -79 -80 -81 -84 85 -87 -89 91 -92 93 95 -96 99 101 104 105 106 110 114 115 -117 -119 -120 -121 -124 -126 129 130 133 138 -144 146 -147 148 -149 -150 0
x -1 2 5 -6 8 -9 -10 -14 -16 -18 23 25 26 27 -29 32 36 -37 40 -41 42 50 -51 53 -57 58 59 60 -65 69 -70 -71 73 76 77 -79 -80 -82 86 89 -94 -96 -98 -99 102 -108 -109 -111 114 116 -117 -118 121 -123 -124 125 127 -129 130 -132 135 -144 145 149 -150 0
x 4 5 7 9 -10 13 -15 16 18 -19 -21 22 -23 25 27 -29 -31 32 -33 34 -36 38 -39 40 42 -43 -46 47 48 50 51 -52 54 -55 -57 -59 -63 64 -65 69 70 -73 76 78 85 87 -88 -89 -94 95 96 -97 -98 -100 102 -104 -105 110 111 -116 -117 -119 -120 121 -123 125 126 -127 128 133 135 137 -138 140 -142 -143 145 -147 148 149 0
x 1 2 7 -8 10 13 -14 15 -16 17 -18 -19 -20 -22 -23 24 25 26 -28 -29 -30 36 -37 38 -46 49 53 54 -56 -57 -58 59 60 -65 66 67 71 -75 -77 79 -80 -81 82 86 87 -91 94 -95 96 -97 98 99 -100 -101 104 -107 -110 -111 -112 115 -116 -117 118 120 -121 -122 -123 -124 125 127 -130 -135 -137 138 139 140 -142 145 -147 149 -150 0
x -4 -7 9 -10 12 13 -14 -17 -19 21 -22 -23 -26 -27 28 -29 -31 34 -35 36 -40 -41 42 -44 45 -46 48 51 54 -55 56 58 -59 67 71 -73 -75 77 79 -83 85 -87 -88 -89 -90 92 -93 94 95 96 99 100 102 -106 -110 -112 113 -115 117 119 120 -121 122 -124 -125 -126 -127 -129 -130 -136 -140 -143 144 145 -148 0
x -5 7 8 10 11 12 -14 15 18 19 20 -22 23 -24 -27 31 -32 34 -35 -38 -42 44 -47 -52 56 -58 60 61 -62 66 -67 68 -69 71 72 -73 74 -75 76 79 -81 83 84 85 -89 90 -92 93 -95 -98 103 110 114 115 116 118 119 -120 121 124 125 126 -131 132 134 135 136 140 -141 -142 -143 145 146 147 0
x -2 4 8 9 -10 12 -13 14 15 -18 -19 20 -21 22 23 25 -28 -32 -40 41 43 -44 -49 51 52 -53 55 -57 -58 -59 60 -61 62 -66 -67 68 70 -73 -75 76 77 -80 -83 84 85 -88 -89 -91 -92 94 96 99 100 103 104 105 110 -111 -113 114 -121 122 123 125 129 -131 -135 -137 -139 141 -142 143 144 -149 150 0
x 4 5 6 -7 8 -9 12 -15 16 -19 -20 -22 -24 25 26 -33 -35 37 -38 39 -42 43 45 -46 48 49 50 -52 -53 54 55 -61 -62 -64 65 -67 -69 70 72 -73 75 -76 -78 -80 -81 83 84 -87 -89 -92 -94 -95 -98 -99 100 -101 -102 103 -104 105 -106 108 -109 110 -111 112 115 -116 117 119 -123 124 -126 128 133 134 -135 -139 141 -142 143 -145 -146 -147 -148 0
x 1 -3 -4 -5 6 9 12 -13 -14 -15 16 -21 -24 -26 27 29 30 -33 -35 36 -37 -38 39 40 42 43 -50 -51 -52 53 58 59 -60 67 -70 72 79 -80 81 82 -83 84 85 -89 90 -92 93 95 -96 98 99 100 -101 104 -106 109 111 112 113 117 -120 -123 124 125 -127 -128 -131 132 133 -134 -139 140 -141 142 143 -145 147 148 -150 0
x -2 -7 8 -9 -11 12 -17 18 19 -20 21 25 28 29 30 -31 33 -34 36 37 -39 -41 42 43 44 -45 47 51 52 53 54 58 -59 -60 -64 65 -66 -68 69 70 -74 -75 -76 77 -80 -82 83 -86 95 -96 97 99 -100 101 104 -105 106 107 -108 -110 112 113 -114 115 -116 -118 120 -121 128 -131 -132 134 136 137 -139 -141 145 -146 147 -149 -150 0
x 2 -4 5 -6 -11 15 -17 -18 -19 22 23 -24 -26 -29 30 -31 33 34 36 -37 -38 39 -40 41 42 -43 45 46 48 49 51 -52 -53 -54 -56 57 -58 59 60 61 62 63 64 66 -67 -72 -74 78 80 82 -85 86 -87 90 -91 -92 -94 -96 -97 98 101 -103 -105 -106 107 -108 -110 -111 -115 116 -121 122 -123 124 -127 128 -129 131 -132 133 138 -139 -140 141 142 -143 146 148 0
x -1 -3 5 -6 7 10 -11 -13 14 15 -18 -19 -20 21 -22 -26 28 32 36 43 -44 46 -47 48 -49 50 51 -52 -54 -56 -62 -64 66 -67 71 72 73 74 -75 77 -78 79 -82 91 92 -93 -95 -97 100 -102 -103 -105 -112 -113 -117 -119 -121 123 126 127 -132 133 -134 -135 139 -141 -142 -143 -144 -146 147 0
x 4 -5 7 -8 9 10 -13 14 15 19 23 24 -25 26 27 -28 30 31 33 34 -35 -36 37 38 -39 40 41 -42 43 45 51 52 54 55 -58 59 -60 -61 -64 -65 -67 68 69 71 -72 73 74 -79 81 82 -83 84 85 86 89 -90 91 -92 -93 -94 -95 96 -98 -102 -107 112 -113 114 -118 119 123 124 -125 126 127 -130 132 -134 135 -136 -143 147 150 0
x -1 3 -4 -5 -9 11 -15 -16 -17 -18 -21 26 -27 32 -33 -36 -37 39 40 42 45 -48 49 -50 -52 53 54 -59 -60 61 62 64 65 -66 -67 68 69 -70 72 76 77 80 -84 89 -91 94 -95 99 -100 101 -102 103 105 106 108 109 -111 -114 115 -116 118 -119 122 123 128 131 -133 -134 -135 136 137 138 -139 140 143 144 145 146 147 -148 150 0
x -2 -3 -11 14 -15 17 -20 22 23 25 28 29 -30 31 33 -34 -36 -38 43 -44 46 50 -51 53 58 -59 -61 65 -66 -69 73 -74 76 -77 -79 -82 -85 -90 -93 -94 99 -100 -102 105 -106 107 -108 109 -112 -114 -116 118 -119 -124 126 -127 128 -129 -131 -135 -139 -147 -148 150 0
x -2 -3 8 10 11 -12 -16 -17 -20 21 22 23 -25 -26 27 -29 -31 -32 -33 -34 39 -40 42 -45 -48 -49 -52 56 -57 59 -61 64 -66 -67 68 69 -70 -71 72 -75 -76 -78 -82 83 84 -86 -87 -88 -89 -92 94 99 -100 -101 -104 -105 -107 108 -113 114 115 -117 118 119 -120 -121 -122 124 126 127 128 132 135 136 -137 138 140 144 145 -146 149 -150 0
x -3 5 -6 -8 10 11 13 -15 -16 17 -19 21 -23 24 25 29 -30 31 33 34 38 40 -41 -42 52 -54 -55 56 -57 -58 60 -62 -63 65 66 -67 68 -71 -73 75 -76 79 81 82 -83 89 -95 -97 -98 -99 102 -104 -107 -108 109 -110 -111 114 -115 122 -123 -126 127 128 129 131 135 136 -138 139 140 -143 147 -148 149 150 0
x -2 -3 4 14 15 18 -26 27 28 29 30 -31 -37 39 -40 -42 43 -45 50 52 -53 -56 -57 58 59 -60 62 63 -64 -65 66 -77 78 81 -82 83 -88 -89 -91 -93 -94 96 -101 104 107 -110 -111 112 -113 114 -117 -121 -122 -136 138 -139 -140 141 144 -145 -146 -148 0
x 2 3 -5 -6 7 -12 14 -18 20 -22 23 24 -27 -28 -29 36 37 -38 39 -41 43 -44 46 -49 -53 59 61 62 -63 66 -67 69 -71 -75 -76 80 -81 83 84 -85 -86 -88 -93 95 -96 -98 100 101 102 104 106 108 -111 -113 -114 115 116 -119 121 122 123 -126 128 129 -130 -133 135 136 138 139 -140 -141 -142 -144 150 0
x -2 3 -5 -6 -7 9 -11 12 15 16 -19 20 -24 -27 28 30 -33 -36 38 -39 40 -42 43 -44 -47 49 51 -55 57 58 -59 62 63 -70 71 72 -73 74 76 -77 79 -80 81 -82 83 -87 -88 91 94 97 99 100 102 103 -105 106 -109 -112 114 -115 -116 -118 122 123 -124 -126 -127 -128 -129 -133 134 -135 -137 -138 -139 -140 -141 144 146 -148 -149 0
x 2 -7 -9 -10 11 12 -14 16 18 20 -23 24 26 -27 -29 -33 -36 -38 39 -40 -42 -43 -45 -46 50 51 -52 53 -54 -56 57 58 59 65 -66 67 -70 73 -76 -77 82 -85 -88 -90 -91 -92 93 95 96 -97 -103 -105 -108 -109 110 112 114 -115 -116 -117 -118 119 121 122 123 128 129 -130 131 133 -134 -138 -142 -145 -146 -147 -148 149 150 0
x -2 -3 -4 -10 15 -16 17 18 -19 21 -22 -23 -24 -28 -29 30 -32 -33 34 35 36 37 -39 -42 -43 44 -45 47 49 50 54 -56 -59 60 61 -64 65 -66 67 68 -69 70 -71 74 -75 83 -85 -86 -87 88 91 92 95 -96 -100 -101 -103 -107 108 110 111 -116 117 120 -124 -125 -127 128 -129 131 -132 133 134 -135 -136 137 -139 140 142 -143 145 -148 0
x -2 7 8 12 13 -14 -15 -16 -20 21 22 -23 26 28 29 -30 32 33 39 -42 43 -44 45 -49 -50 -51 -53 54 57 -62 -64 66 67 70 73 75 76 78 -80 81 82 83 -85 -88 89 90 -91 -93 94 -97 -99 -102 -105 -106 107 -109 112 -116 118 -121 -122 -123 -125 126 127 128 130 -135 136 141 142 143 -144 -147 149 0
x -1 -3 5 -6 -8 -11 13 18 -20 23 24 27 29 -30 31 32 -34 -37 38 -40 -41 -44 -45 -46 47 50 -51 -52 53 56 61 62 -68 -70 71 -72 74 75 -78 85 87 92 94 95 96 -97 -98 -102 -104 -105 -107 -108 112 -114 -115 -116 -120 -122 -123 -126 -128 129 130 -131 132 -133 -135 -138 -140 145 -147 -148 149 0
x 4 5 -6 -7 8 -12 -15 -16 17 18 22 -23 -24 -26 28 30 -31 39 -40 -41 -43 48 50 -52 57 -58 -60 62 -64 68 -69 -70 -71 -72 -74 -75 77 -83 85 86 87 -89 90 93 -97 99 102 -103 -106 107 108 109 111 -114 117 -118 -119 120 -121 123 124 125 126 130 131 -133 137 138 -139 -144 145 -147 -148 -149 150 0
x 1 -3 -4 -6 -12 -15 16 18 -21 -22 23 24 25 -26 -27 28 30 33 -38 41 42 44 -45 46 48 49 -51 -52 53 54 -55 -58 -60 61 62 -66 69 -70 -73 -74 75 78 -79 81 -82 85 87 -89 90 -91 -93 95 97 -98 -100 -101 -102 103 104 -109 -110 111 114 115 119 122 123 -124 -126 130 -135 136 -137 -138 141 144 147 148 0
x -2 -3 -5 6 -8 -10 -11 13 14 15 -21 -23 -25 -26 -27 -28 29 -32 -33 -34 35 -36 -42 43 -46 48 49 -51 -52 -56 -58 -60 62 -63 64 65 66 67 69 -70 -71 72 -74 -75 76 -78 79 -82 88 -90 91 92 -96 98 -100 -102 -103 -106 -107 109 110 -112 113 -114 -119 -120 121 122 123 -126 -127 128 129 130 -131 -132 133 -135 138 139 141 143 145 0
x 1 -2 -3 -6 7 -8 13 -14 15 -17 -18 19 20 -21 -22 23 -24 27 31 -33 34 -35 -43 44 47 -48 49 51 52 55 -56 -57 58 -61 -63 65 66 -68 71 76 -78 -79 80 -81 83 -85 -86 -87 -88 -89 92 -94 -95 -96 -97 99 -101 109 111 112 114 115 -118 -119 -120 -123 -124 -125 128 133 137 -139 140 -144 145 147 0
x 1 -4 6 7 -8 10 13 -15 -17 20 -24 25 27 -29 31 -32 33 -35 -38 39 -41 -42 45 -49 -52 -54 55 -58 59 61 62 -63 -64 -67 69 -70 73 76 77 -78 -81 -82 -83 -84 -88 91 -92 96 -97 100 102 -108 -109 -110 111 117 -118 120 121 -123 -124 125 -126 127 -128 129 137 138 140 141 -142 -145 146 150 0
x 1 -4 9 -13 14 -15 16 17 19 -24 -28 -31 -32 -42 -43 -47 48 49 51 -52 53 -57 59 61 63 -64 67 -71 -74 82 -83 -84 -86 90 92 -96 100 -101 103 -104 105 109 -111 -112 116 -117 -118 -122 -127 -128 129 130 -131 134 -136 -137 139 -140 -141 142 146 -147 -149 0
x 1 -2 3 4 5 7 -8 -13 15 -16 17 19 -21 22 23 -24 26 27 28 29 -32 -33 36 -37 40 42 -43 44 -48 49 50 -53 54 -62 65 -66 76 -79 -84 89 90 91 94 -95 -96 -99 100 101 102 105 106 108 110 112 113 -115 -117 -118 -121 123 -124 -126 127 128 129 -131 -133 135 -137 138 140 141 -143 147 0
x 2 -3 4 5 -6 7 8 9 -10 -11 13 -14 15 16 -17 -18 -23 -24 -28 -30 -36 -37 39 42 -43 -44 45 46 48 50 -51 54 -58 59 61 62 -64 -65 -70 -72 73 74 75 -78 -82 -84 -85 86 -88 91 -92 94 95 -97 -100 101 -102 -103 -106 -108 -109 111 112 114 115 117 118 119 121 -123 124 126 129 132 133 -135 137 138 -139 -144 146 147 149 0
x 1 -4 5 -9 -12 14 -16 -19 22 24 25 -26 -28 32 -34 36 -37 -38 39 40 41 -45 -46 49 -54 56 -58 64 -65 69 -70 -71 -72 73 -76 -77 78 79 -80 81 82 -85 87 91 -92 94 -96 -97 98 99 103 -104 108 -109 110 -111 -114 115 116 117 -119 121 -123 125 126 -129 -130 -133 -135 -137 -140 -141 -143 145 149 -150 0
x -1 -4 -5 -6 7 11 -12 -13 -14 18 -21 22 23 -24 -28 -30 -31 32 -33 35 -37 40 -41 -44 -47 -49 57 59 -60 62 63 64 66 -67 -69 74 -76 -77 80 -82 -83 -84 88 -89 91 -92 -93 -95 -97 -99 102 104 107 108 -110 111 -113 114 116 118 119 120 122 -123 124 -125 128 130 133 140 -141 -143 -144 -145 146 148 0
x -2 6 -8 11 12 -13 14 -15 16 17 -19 -20 22 23 24 27 28 32 33 34 37 42 43 -44 -45 48 49 -51 52 55 -57 -58 59 -60 62 66 68 69 70 -72 -73 -75 -77 -78 82 -83 85 -87 88 -89 90 92 93 94 96 -97 98 -99 101 -103 105 -107 116 -118 121 -123 -124 -128 -134 141 142 -145 -146 149 150 0
x -3 -7 10 -12 -13 14 16 -22 23 -26 27 -31 -34 -35 -38 39 -40 -41 45 48 -49 -51 -55 58 61 -64 -66 -67 70 73 74 -75 -76 77 -78 79 -83 84 85 -86 -87 -89 93 -96 98 99 103 104 105 107 -110 -116 -117 -118 121 -126 -128 -129 -131 -133 -134 -137 138 -139 140 141 143 144 145 -146 149 0
x -2 3 -4 -5 6 11 -16 -17 -18 19 -20 21 -22 -23 -24 -27 28 -30 -35 -37 41 42 43 44 -45 -46 -48 -49 50 -57 -59 61 63 -65 -66 -67 -70 -72 74 -77 -80 -81 -82 85 -87 -89 90 -92 95 97 -100 102 -104 -105 -106 -107 108 111 -112 -114 -118 119 120 122 -123 124 -125 -129 -130 131 -132 133 135 136 -138 -140 143 -144 -145 147 -148 -150 0
g -30